language Essence 1.3

letting blksize_delta be function(1 --> 3, 2 --> 3, 3 --> 3, 4 --> 2)
letting maxcars be function(1 --> 10, 2 --> 10, 3 --> 10, 4 --> 10)
letting n_cars be 297
letting n_classes be 181
letting n_options be 4
letting quantity be
        function(1 --> 99, 2 --> 1, 3 --> 17, 4 --> 1, 5 --> 1, 6 --> 3, 7 --> 1, 8 --> 1, 9 --> 1, 10 --> 1, 11 --> 1,
                 12 --> 1, 13 --> 1, 14 --> 1, 15 --> 1, 16 --> 1, 17 --> 1, 18 --> 1, 19 --> 1, 20 --> 1, 21 --> 1,
                 22 --> 1, 23 --> 1, 24 --> 1, 25 --> 1, 26 --> 1, 27 --> 1, 28 --> 1, 29 --> 1, 30 --> 1, 31 --> 1,
                 32 --> 1, 33 --> 1, 34 --> 1, 35 --> 1, 36 --> 1, 37 --> 1, 38 --> 1, 39 --> 1, 40 --> 1, 41 --> 1,
                 42 --> 1, 43 --> 1, 44 --> 1, 45 --> 1, 46 --> 1, 47 --> 1, 48 --> 1, 49 --> 1, 50 --> 1, 51 --> 1,
                 52 --> 1, 53 --> 1, 54 --> 1, 55 --> 1, 56 --> 1, 57 --> 1, 58 --> 1, 59 --> 1, 60 --> 1, 61 --> 1,
                 62 --> 1, 63 --> 1, 64 --> 1, 65 --> 1, 66 --> 1, 67 --> 1, 68 --> 1, 69 --> 1, 70 --> 1, 71 --> 1,
                 72 --> 1, 73 --> 1, 74 --> 1, 75 --> 1, 76 --> 1, 77 --> 1, 78 --> 1, 79 --> 1, 80 --> 1, 81 --> 1,
                 82 --> 1, 83 --> 1, 84 --> 1, 85 --> 1, 86 --> 1, 87 --> 1, 88 --> 1, 89 --> 1, 90 --> 1, 91 --> 1,
                 92 --> 1, 93 --> 1, 94 --> 1, 95 --> 1, 96 --> 1, 97 --> 1, 98 --> 1, 99 --> 1, 100 --> 1, 101 --> 1,
                 102 --> 1, 103 --> 1, 104 --> 1, 105 --> 1, 106 --> 1, 107 --> 1, 108 --> 1, 109 --> 1, 110 --> 1,
                 111 --> 1, 112 --> 1, 113 --> 1, 114 --> 1, 115 --> 1, 116 --> 1, 117 --> 1, 118 --> 1, 119 --> 1,
                 120 --> 1, 121 --> 1, 122 --> 1, 123 --> 1, 124 --> 1, 125 --> 1, 126 --> 1, 127 --> 1, 128 --> 1,
                 129 --> 1, 130 --> 1, 131 --> 1, 132 --> 1, 133 --> 1, 134 --> 1, 135 --> 1, 136 --> 1, 137 --> 1,
                 138 --> 1, 139 --> 1, 140 --> 1, 141 --> 1, 142 --> 1, 143 --> 1, 144 --> 1, 145 --> 1, 146 --> 1,
                 147 --> 1, 148 --> 1, 149 --> 1, 150 --> 1, 151 --> 1, 152 --> 1, 153 --> 1, 154 --> 1, 155 --> 1,
                 156 --> 1, 157 --> 1, 158 --> 1, 159 --> 1, 160 --> 1, 161 --> 1, 162 --> 1, 163 --> 1, 164 --> 1,
                 165 --> 1, 166 --> 1, 167 --> 1, 168 --> 1, 169 --> 1, 170 --> 1, 171 --> 1, 172 --> 1, 173 --> 1,
                 174 --> 1, 175 --> 1, 176 --> 1, 177 --> 1, 178 --> 1, 179 --> 1, 180 --> 1, 181 --> 1)
letting usage be
        relation((1, 1), (2, 1), (2, 2), (2, 3), (2, 4), (3, 3), (4, 1), (4, 3), (4, 4), (5, 1), (5, 2), (5, 4), (6, 1),
                 (6, 4), (7, 1), (7, 2), (8, 2), (8, 4), (9, 4), (10, 3), (11, 4), (12, 2), (12, 4), (13, 3), (14, 2),
                 (14, 3), (14, 4), (15, 2), (15, 3), (15, 4), (16, 4), (17, 3), (18, 3), (18, 4), (19, 3), (20, 2),
                 (20, 3), (20, 4), (21, 2), (21, 3), (22, 1), (22, 4), (23, 1), (23, 2), (23, 4), (24, 1), (24, 3),
                 (25, 1), (25, 3), (26, 1), (27, 1), (27, 3), (28, 1), (28, 2), (28, 3), (28, 4), (29, 1), (29, 4),
                 (30, 1), (30, 4), (31, 1), (32, 3), (32, 4), (33, 2), (33, 3), (33, 4), (34, 1), (34, 4), (35, 3),
                 (36, 1), (37, 1), (37, 4), (38, 2), (39, 1), (39, 2), (40, 2), (40, 3), (40, 4), (41, 3), (42, 1),
                 (43, 2), (43, 4), (44, 3), (44, 4), (45, 4), (46, 3), (46, 4), (47, 1), (47, 2), (47, 3), (47, 4),
                 (48, 2), (48, 4), (49, 2), (49, 3), (49, 4), (50, 2), (50, 4), (51, 3), (51, 4), (52, 1), (52, 2),
                 (52, 4), (53, 1), (53, 2), (53, 4), (54, 2), (54, 4), (55, 4), (56, 1), (56, 4), (57, 2), (57, 3),
                 (57, 4), (58, 4), (59, 1), (59, 4), (60, 1), (60, 2), (60, 3), (60, 4), (61, 1), (61, 3), (61, 4),
                 (62, 2), (62, 3), (62, 4), (63, 1), (63, 3), (63, 4), (64, 3), (64, 4), (65, 3), (65, 4), (66, 1),
                 (66, 2), (66, 3), (66, 4), (67, 2), (67, 3), (67, 4), (68, 1), (68, 4), (69, 2), (69, 4), (70, 2),
                 (70, 4), (71, 3), (71, 4), (72, 3), (72, 4), (73, 2), (73, 4), (74, 4), (75, 1), (75, 4), (76, 2),
                 (76, 4), (77, 2), (77, 4), (78, 4), (79, 4), (80, 1), (80, 3), (80, 4), (81, 2), (81, 4), (82, 1),
                 (82, 4), (83, 2), (83, 4), (84, 1), (84, 3), (84, 4), (85, 1), (85, 3), (85, 4), (86, 1), (86, 2),
                 (86, 3), (86, 4), (87, 2), (87, 3), (87, 4), (88, 2), (88, 3), (88, 4), (89, 3), (89, 4), (90, 2),
                 (90, 4), (91, 1), (91, 4), (92, 2), (92, 3), (92, 4), (93, 4), (94, 1), (94, 4), (95, 1), (95, 2),
                 (95, 3), (95, 4), (96, 2), (96, 4), (97, 1), (97, 2), (97, 3), (97, 4), (98, 2), (98, 4), (99, 4),
                 (100, 1), (100, 2), (100, 3), (100, 4), (101, 4), (102, 1), (102, 2), (102, 3), (102, 4), (103, 4),
                 (104, 4), (105, 4), (106, 2), (106, 4), (107, 1), (107, 2), (107, 4), (108, 2), (108, 3), (108, 4),
                 (109, 4), (110, 4), (111, 2), (111, 3), (111, 4), (112, 3), (112, 4), (113, 1), (113, 4), (114, 3),
                 (114, 4), (115, 1), (115, 3), (115, 4), (116, 4), (117, 1), (117, 4), (118, 1), (118, 3), (118, 4),
                 (119, 1), (119, 2), (119, 3), (119, 4), (120, 2), (120, 3), (120, 4), (121, 1), (121, 2), (121, 3),
                 (121, 4), (122, 3), (122, 4), (123, 4), (124, 4), (125, 1), (125, 3), (125, 4), (126, 1), (126, 2),
                 (126, 3), (126, 4), (127, 1), (127, 3), (127, 4), (128, 1), (128, 2), (128, 3), (128, 4), (129, 3),
                 (129, 4), (130, 1), (130, 2), (130, 3), (130, 4), (131, 2), (131, 3), (131, 4), (132, 4), (133, 4),
                 (134, 1), (134, 2), (134, 4), (135, 4), (136, 4), (137, 4), (138, 2), (138, 3), (138, 4), (139, 2),
                 (139, 4), (140, 1), (140, 4), (141, 1), (141, 2), (141, 3), (141, 4), (142, 1), (142, 3), (142, 4),
                 (143, 1), (143, 2), (143, 3), (143, 4), (144, 4), (145, 1), (145, 2), (145, 3), (145, 4), (146, 2),
                 (146, 4), (147, 3), (147, 4), (148, 2), (148, 4), (149, 1), (149, 4), (150, 1), (150, 2), (150, 4),
                 (151, 2), (151, 3), (151, 4), (152, 4), (153, 2), (153, 4), (154, 4), (155, 3), (155, 4), (156, 4),
                 (157, 1), (157, 3), (157, 4), (158, 1), (158, 2), (158, 3), (158, 4), (159, 1), (159, 3), (159, 4),
                 (160, 1), (160, 2), (160, 4), (161, 1), (161, 2), (161, 4), (162, 4), (163, 1), (163, 3), (163, 4),
                 (164, 1), (164, 3), (164, 4), (165, 1), (165, 2), (165, 4), (166, 3), (166, 4), (167, 1), (167, 2),
                 (167, 4), (168, 1), (168, 4), (169, 3), (169, 4), (170, 2), (170, 3), (170, 4), (171, 3), (171, 4),
                 (172, 3), (172, 4), (173, 3), (173, 4), (174, 1), (174, 2), (174, 3), (174, 4), (175, 2), (175, 4),
                 (176, 1), (176, 2), (176, 4), (177, 2), (177, 4), (178, 2), (178, 3), (178, 4), (179, 2), (179, 4),
                 (180, 4), (181, 1), (181, 2), (181, 3))
$ Visualisation for usage
$   1   1
$   2   1
$   2   2
$   2   3
$   2   4
$   3   3
$   4   1
$   4   3
$   4   4
$   5   1
$   5   2
$   5   4
$   6   1
$   6   4
$   7   1
$   7   2
$   8   2
$   8   4
$   9   4
$  10   3
$  11   4
$  12   2
$  12   4
$  13   3
$  14   2
$  14   3
$  14   4
$  15   2
$  15   3
$  15   4
$  16   4
$  17   3
$  18   3
$  18   4
$  19   3
$  20   2
$  20   3
$  20   4
$  21   2
$  21   3
$  22   1
$  22   4
$  23   1
$  23   2
$  23   4
$  24   1
$  24   3
$  25   1
$  25   3
$  26   1
$  27   1
$  27   3
$  28   1
$  28   2
$  28   3
$  28   4
$  29   1
$  29   4
$  30   1
$  30   4
$  31   1
$  32   3
$  32   4
$  33   2
$  33   3
$  33   4
$  34   1
$  34   4
$  35   3
$  36   1
$  37   1
$  37   4
$  38   2
$  39   1
$  39   2
$  40   2
$  40   3
$  40   4
$  41   3
$  42   1
$  43   2
$  43   4
$  44   3
$  44   4
$  45   4
$  46   3
$  46   4
$  47   1
$  47   2
$  47   3
$  47   4
$  48   2
$  48   4
$  49   2
$  49   3
$  49   4
$  50   2
$  50   4
$  51   3
$  51   4
$  52   1
$  52   2
$  52   4
$  53   1
$  53   2
$  53   4
$  54   2
$  54   4
$  55   4
$  56   1
$  56   4
$  57   2
$  57   3
$  57   4
$  58   4
$  59   1
$  59   4
$  60   1
$  60   2
$  60   3
$  60   4
$  61   1
$  61   3
$  61   4
$  62   2
$  62   3
$  62   4
$  63   1
$  63   3
$  63   4
$  64   3
$  64   4
$  65   3
$  65   4
$  66   1
$  66   2
$  66   3
$  66   4
$  67   2
$  67   3
$  67   4
$  68   1
$  68   4
$  69   2
$  69   4
$  70   2
$  70   4
$  71   3
$  71   4
$  72   3
$  72   4
$  73   2
$  73   4
$  74   4
$  75   1
$  75   4
$  76   2
$  76   4
$  77   2
$  77   4
$  78   4
$  79   4
$  80   1
$  80   3
$  80   4
$  81   2
$  81   4
$  82   1
$  82   4
$  83   2
$  83   4
$  84   1
$  84   3
$  84   4
$  85   1
$  85   3
$  85   4
$  86   1
$  86   2
$  86   3
$  86   4
$  87   2
$  87   3
$  87   4
$  88   2
$  88   3
$  88   4
$  89   3
$  89   4
$  90   2
$  90   4
$  91   1
$  91   4
$  92   2
$  92   3
$  92   4
$  93   4
$  94   1
$  94   4
$  95   1
$  95   2
$  95   3
$  95   4
$  96   2
$  96   4
$  97   1
$  97   2
$  97   3
$  97   4
$  98   2
$  98   4
$  99   4
$ 100   1
$ 100   2
$ 100   3
$ 100   4
$ 101   4
$ 102   1
$ 102   2
$ 102   3
$ 102   4
$ 103   4
$ 104   4
$ 105   4
$ 106   2
$ 106   4
$ 107   1
$ 107   2
$ 107   4
$ 108   2
$ 108   3
$ 108   4
$ 109   4
$ 110   4
$ 111   2
$ 111   3
$ 111   4
$ 112   3
$ 112   4
$ 113   1
$ 113   4
$ 114   3
$ 114   4
$ 115   1
$ 115   3
$ 115   4
$ 116   4
$ 117   1
$ 117   4
$ 118   1
$ 118   3
$ 118   4
$ 119   1
$ 119   2
$ 119   3
$ 119   4
$ 120   2
$ 120   3
$ 120   4
$ 121   1
$ 121   2
$ 121   3
$ 121   4
$ 122   3
$ 122   4
$ 123   4
$ 124   4
$ 125   1
$ 125   3
$ 125   4
$ 126   1
$ 126   2
$ 126   3
$ 126   4
$ 127   1
$ 127   3
$ 127   4
$ 128   1
$ 128   2
$ 128   3
$ 128   4
$ 129   3
$ 129   4
$ 130   1
$ 130   2
$ 130   3
$ 130   4
$ 131   2
$ 131   3
$ 131   4
$ 132   4
$ 133   4
$ 134   1
$ 134   2
$ 134   4
$ 135   4
$ 136   4
$ 137   4
$ 138   2
$ 138   3
$ 138   4
$ 139   2
$ 139   4
$ 140   1
$ 140   4
$ 141   1
$ 141   2
$ 141   3
$ 141   4
$ 142   1
$ 142   3
$ 142   4
$ 143   1
$ 143   2
$ 143   3
$ 143   4
$ 144   4
$ 145   1
$ 145   2
$ 145   3
$ 145   4
$ 146   2
$ 146   4
$ 147   3
$ 147   4
$ 148   2
$ 148   4
$ 149   1
$ 149   4
$ 150   1
$ 150   2
$ 150   4
$ 151   2
$ 151   3
$ 151   4
$ 152   4
$ 153   2
$ 153   4
$ 154   4
$ 155   3
$ 155   4
$ 156   4
$ 157   1
$ 157   3
$ 157   4
$ 158   1
$ 158   2
$ 158   3
$ 158   4
$ 159   1
$ 159   3
$ 159   4
$ 160   1
$ 160   2
$ 160   4
$ 161   1
$ 161   2
$ 161   4
$ 162   4
$ 163   1
$ 163   3
$ 163   4
$ 164   1
$ 164   3
$ 164   4
$ 165   1
$ 165   2
$ 165   4
$ 166   3
$ 166   4
$ 167   1
$ 167   2
$ 167   4
$ 168   1
$ 168   4
$ 169   3
$ 169   4
$ 170   2
$ 170   3
$ 170   4
$ 171   3
$ 171   4
$ 172   3
$ 172   4
$ 173   3
$ 173   4
$ 174   1
$ 174   2
$ 174   3
$ 174   4
$ 175   2
$ 175   4
$ 176   1
$ 176   2
$ 176   4
$ 177   2
$ 177   4
$ 178   2
$ 178   3
$ 178   4
$ 179   2
$ 179   4
$ 180   4
$ 181   1
$ 181   2
$ 181   3

